[1] Reading Data...
[1] Solving...
Optimize a model with 17809 rows, 450 columns and 35618 nonzeros
Variable types: 0 continuous, 450 integer (450 binary)
Coefficient statistics:
  Matrix range     [1e+00, 1e+00]
  Objective range  [1e+00, 1e+00]
  Bounds range     [0e+00, 0e+00]
  RHS range        [1e+00, 1e+00]
Found heuristic solution: objective 23.0000000
Presolve removed 14356 rows and 0 columns
Presolve time: 0.44s
Presolved: 3453 rows, 450 columns, 20756 nonzeros
Variable types: 0 continuous, 450 integer (450 binary)

Root relaxation: objective 5.427452e+01, 2513 iterations, 1.42 seconds

    Nodes    |    Current Node    |     Objective Bounds      |     Work
 Expl Unexpl |  Obj  Depth IntInf | Incumbent    BestBd   Gap | It/Node Time

     0     0   54.27452    0  379   23.00000   54.27452   136%     -    2s
H    0     0                      24.0000000   54.27452   126%     -    2s
H    0     0                      25.0000000   54.27452   117%     -    2s
     0     0   30.45455    0  152   25.00000   30.45455  21.8%     -    3s
     0     0   30.41935    0  142   25.00000   30.41935  21.7%     -    4s
     0     0   30.41935    0  133   25.00000   30.41935  21.7%     -    4s
     0     0   30.00000    0  154   25.00000   30.00000  20.0%     -    4s
     0     0   30.00000    0  139   25.00000   30.00000  20.0%     -    4s
     0     0   30.00000    0  157   25.00000   30.00000  20.0%     -    4s
     0     0   30.00000    0  144   25.00000   30.00000  20.0%     -    4s
     0     0   30.00000    0  119   25.00000   30.00000  20.0%     -    5s
     0     0   30.00000    0  126   25.00000   30.00000  20.0%     -    5s
     0     0   30.00000    0  109   25.00000   30.00000  20.0%     -    6s
     0     0   30.00000    0  126   25.00000   30.00000  20.0%     -    6s
     0     0   30.00000    0  133   25.00000   30.00000  20.0%     -    6s
     0     0   30.00000    0  123   25.00000   30.00000  20.0%     -    6s
     0     0   30.00000    0  138   25.00000   30.00000  20.0%     -    7s
     0     0   30.00000    0  138   25.00000   30.00000  20.0%     -    7s
     0     2   30.00000    0  138   25.00000   30.00000  20.0%     -    9s
    19    21   30.00000    5  100   25.00000   30.00000  20.0%   216   10s
H   29    29                      26.0000000   30.00000  15.4%   196   10s
H   65    53                      27.0000000   30.00000  11.1%   136   10s
   652   253   28.80000   20   65   27.00000   30.00000  11.1%  59.1   15s
  1597   584   28.21429   25   65   27.00000   30.00000  11.1%  60.9   20s
  1947   721   28.50000   17   60   27.00000   30.00000  11.1%  61.1   25s
  2063   753   29.19853   16  346   27.00000   30.00000  11.1%  60.8   33s
  2064   754   30.00000    3  140   27.00000   30.00000  11.1%  60.8   35s
  2068   757   28.50000   21  145   27.00000   30.00000  11.1%  60.7   40s
  2073   760   29.50000   21  122   27.00000   30.00000  11.1%  60.5   45s
  2081   765   29.80000   16  112   27.00000   30.00000  11.1%  60.3   50s
  2085   771   30.00000   13  119   27.00000   30.00000  11.1%  69.6   58s
  2087   774   30.00000   14  110   27.00000   30.00000  11.1%  69.7   60s
  2145   806   30.00000   21   66   27.00000   30.00000  11.1%  71.6   65s
  2548   935   29.72222   51   85   27.00000   30.00000  11.1%  71.2   71s
  2997  1025   28.00000   39   60   27.00000   30.00000  11.1%  67.0   75s
* 3239   708              39      28.0000000   30.00000  7.14%  64.7   75s
* 3414   343              38      29.0000000   30.00000  3.45%  63.7   76s
  3581   274   29.80000   16  347   29.00000   30.00000  3.45%  63.5   81s
  3583   276   29.91667   11  128   29.00000   30.00000  3.45%  63.5   85s
  3587   278   30.00000   11  131   29.00000   30.00000  3.45%  63.4   90s
  3593   282   29.00000   15  110   29.00000   30.00000  3.45%  63.3   95s
  3599   286   29.41667   20  180   29.00000   30.00000  3.45%  63.2  100s
  3602   288   29.00000   18  139   29.00000   30.00000  3.45%  63.2  105s
  3605   293   30.00000   26   99   29.00000   30.00000  3.45%  68.9  110s
  3644   305   30.00000   32   78   29.00000   30.00000  3.45%  69.4  115s
  4122   350 infeasible   51        29.00000   30.00000  3.45%  69.9  120s
  4387   343   30.00000   60   54   29.00000   30.00000  3.45%  69.7  127s
  4421   312   30.00000   49   58   29.00000   30.00000  3.45%  69.7  130s
  5127   421   30.00000   47   74   29.00000   30.00000  3.45%  68.3  135s
  6012   716   30.00000   70   72   29.00000   30.00000  3.45%  66.3  141s
  6547   624 infeasible   42        29.00000   30.00000  3.45%  65.8  145s
  7072   832 infeasible   62        29.00000   30.00000  3.45%  65.8  150s
  7723   931 infeasible   34        29.00000   30.00000  3.45%  67.0  157s
  8083   930   30.00000   51   83   29.00000   30.00000  3.45%  67.0  160s
  8703   963 infeasible   63        29.00000   30.00000  3.45%  67.1  165s
  9488  1056 infeasible   61        29.00000   30.00000  3.45%  68.5  171s
 10141  1266 infeasible   90        29.00000   30.00000  3.45%  68.7  177s
 10193  1205 infeasible   54        29.00000   30.00000  3.45%  68.9  180s
 10789  1295   30.00000   55   68   29.00000   30.00000  3.45%  69.9  185s
 11469  1493 infeasible   35        29.00000   30.00000  3.45%  69.9  192s
 11844  1433   30.00000   73   77   29.00000   30.00000  3.45%  70.0  197s
 12054  1466 infeasible   57        29.00000   30.00000  3.45%  70.4  200s
 12832  1754   30.00000   60   80   29.00000   30.00000  3.45%  71.2  207s
 12862  1682   30.00000   61   73   29.00000   30.00000  3.45%  71.2  210s
 13514  1740 infeasible   48        29.00000   30.00000  3.45%  71.6  215s
 14298  1910   30.00000   45   64   29.00000   30.00000  3.45%  71.9  222s
 14668  2006 infeasible   56        29.00000   30.00000  3.45%  71.9  225s
 14810  2031 infeasible   61        29.00000   30.00000  3.45%  72.2  230s
 15314  2076 infeasible   52        29.00000   30.00000  3.45%  72.3  236s
 15829  2047 infeasible   51        29.00000   30.00000  3.45%  74.2  243s
 16045  2051 infeasible   46        29.00000   30.00000  3.45%  74.7  249s
 16092  2053 infeasible   49        29.00000   30.00000  3.45%  74.9  253s
 16124  2011 infeasible   49        29.00000   30.00000  3.45%  75.0  257s
 16449  2060   30.00000   69   88   29.00000   30.00000  3.45%  75.8  261s
 17076  2041 infeasible   48        29.00000   30.00000  3.45%  76.4  266s
 17256  2002 infeasible   68        29.00000   30.00000  3.45%  76.9  270s
 17529  2081   30.00000   52   72   29.00000   30.00000  3.45%  77.6  275s
 17988  2054 infeasible   43        29.00000   30.00000  3.45%  77.5  280s
 18375  1952 infeasible   34        29.00000   30.00000  3.45%  77.9  286s
 18652  2009 infeasible   46        29.00000   30.00000  3.45%  78.6  290s
 19225  2100   30.00000   37   78   29.00000   30.00000  3.45%  78.8  297s
 19482  2079 infeasible   40        29.00000   30.00000  3.45%  79.3  302s
 19773  2080   30.00000   55   79   29.00000   30.00000  3.45%  79.8  305s
 20409  2099 infeasible   47        29.00000   30.00000  3.45%  80.0  313s
 20477  2034   30.00000   37   88   29.00000   30.00000  3.45%  80.1  317s
 20708  2029   30.00000   51   71   29.00000   30.00000  3.45%  80.8  320s
 21094  2157   30.00000   71  138   29.00000   30.00000  3.45%  80.9  376s
 21096  2158   30.00000   64  347   29.00000   30.00000  3.45%  80.9  380s
 21099  2160   30.00000   80  149   29.00000   30.00000  3.45%  80.9  385s
 21102  2162   30.00000   57  138   29.00000   30.00000  3.45%  80.9  390s
 21108  2166   30.00000   47  118   29.00000   30.00000  3.45%  80.8  395s
 21112  2169   30.00000   59  128   29.00000   30.00000  3.45%  80.8  400s
 21115  2171   30.00000  118  132   29.00000   30.00000  3.45%  80.8  406s
 21118  2176   30.00000   37  139   29.00000   30.00000  3.45%  81.8  415s
 21124  2180   30.00000   39  115   29.00000   30.00000  3.45%  81.8  421s
 21132  2179   30.00000   40   92   29.00000   30.00000  3.45%  81.8  425s
 21149  2182   30.00000   42   87   29.00000   30.00000  3.45%  81.9  430s
 21189  2186   30.00000   47   82   29.00000   30.00000  3.45%  81.9  437s
 21317  2197   30.00000   71   73   29.00000   30.00000  3.45%  81.9  442s
 21866  2139 infeasible   71        29.00000   30.00000  3.45%  81.7  447s
 21934  2115   30.00000   52   91   29.00000   30.00000  3.45%  81.8  451s
 22049  2108   30.00000   79   96   29.00000   30.00000  3.45%  81.7  455s
 22272  2033   30.00000   57   84   29.00000   30.00000  3.45%  81.7  461s
 22635  2091   30.00000   72   80   29.00000   30.00000  3.45%  81.6  465s
 23003  2063 infeasible   57        29.00000   30.00000  3.45%  81.7  473s
 23014  2002   30.00000   60   67   29.00000   30.00000  3.45%  81.7  475s
 23501  1840 infeasible   64        29.00000   30.00000  3.45%  81.8  482s
 24007  1703   30.00000   44   82   29.00000   30.00000  3.45%  82.0  487s
 24691  1634 infeasible   50        29.00000   30.00000  3.45%  82.1  493s
 24744  1549 infeasible   66        29.00000   30.00000  3.45%  82.1  495s
 25261  1369   30.00000   66   48   29.00000   30.00000  3.45%  82.4  500s
 25899  1211   30.00000   71   85   29.00000   30.00000  3.45%  82.6  506s
 26303  1214 infeasible   60        29.00000   30.00000  3.45%  82.6  511s
 26771   969   30.00000   56   76   29.00000   30.00000  3.45%  82.4  516s
 27331   760 infeasible   54        29.00000   30.00000  3.45%  82.5  522s
 27668   671 infeasible   72        29.00000   30.00000  3.45%  82.5  525s
 28264   670 infeasible   49        29.00000   30.00000  3.45%  82.7  530s
 28644   772 infeasible   50        29.00000   30.00000  3.45%  82.8  535s
 28991   710   30.00000   52   85   29.00000   30.00000  3.45%  82.9  542s
 29405   820   30.00000   98   79   29.00000   30.00000  3.45%  83.0  545s
 30036   844   30.00000   64   81   29.00000   30.00000  3.45%  83.6  554s
 30091   766 infeasible   74        29.00000   30.00000  3.45%  83.5  557s
 30404   732 infeasible   58        29.00000   30.00000  3.45%  83.5  560s
 30959   649 infeasible   63        29.00000   30.00000  3.45%  83.8  565s
 31293   664   30.00000   54   63   29.00000   30.00000  3.45%  83.8  570s
 32035   715 infeasible   67        29.00000   30.00000  3.45%  83.8  578s
 32178   652   30.00000   68   98   29.00000   30.00000  3.45%  83.8  582s
 32598   683 infeasible   64        29.00000   30.00000  3.45%  84.1  585s
 33257   658   30.00000   57   48   29.00000   30.00000  3.45%  84.5  592s
 33562   682 infeasible   60        29.00000   30.00000  3.45%  84.6  597s
 33642   602 infeasible   66        29.00000   30.00000  3.45%  84.6  600s
 34033   635 infeasible   65        29.00000   30.00000  3.45%  84.8  605s
 34565   783 infeasible   63        29.00000   30.00000  3.45%  85.0  610s
 35376   973 infeasible   56        29.00000   30.00000  3.45%  85.1  619s
 35500   901 infeasible   57        29.00000   30.00000  3.45%  85.2  622s
 35782   871   30.00000   64   71   29.00000   30.00000  3.45%  85.3  626s
 36517   846 infeasible   52        29.00000   30.00000  3.45%  85.5  633s
 36845   853 infeasible   56        29.00000   30.00000  3.45%  85.7  636s
 37248   883   30.00000   67   44   29.00000   30.00000  3.45%  85.7  641s
 37556   864   30.00000   66   66   29.00000   30.00000  3.45%  85.7  645s
 38243   840 infeasible   73        29.00000   30.00000  3.45%  85.6  652s
 38684   985   30.00000   68   81   29.00000   30.00000  3.45%  85.6  657s
 38790   925   30.00000   60   63   29.00000   30.00000  3.45%  85.6  661s
 39564   910 infeasible   74        29.00000   30.00000  3.45%  85.8  668s
 39981   908 infeasible   79        29.00000   30.00000  3.45%  85.9  671s
 40292   909 infeasible   72        29.00000   30.00000  3.45%  85.9  677s
 40419   862   30.00000   57   92   29.00000   30.00000  3.45%  85.9  681s
 40927   985   30.00000   52   66   29.00000   30.00000  3.45%  86.0  685s
 41349  1051 infeasible   57        29.00000   30.00000  3.45%  86.4  690s
 42045  1047 infeasible   59        29.00000   30.00000  3.45%  86.5  696s
 42385  1007   30.00000   55   78   29.00000   30.00000  3.45%  86.5  700s
 42775  1101 infeasible   61        29.00000   30.00000  3.45%  86.6  705s
 43146  1002 infeasible   55        29.00000   30.00000  3.45%  86.6  713s
 43562  1006   30.00000   58   50   29.00000   30.00000  3.45%  86.8  716s
 43887   986   30.00000   61   56   29.00000   30.00000  3.45%  86.9  720s
 44536   928 infeasible   66        29.00000   30.00000  3.45%  87.2  727s
 44930  1003 infeasible   69        29.00000   30.00000  3.45%  87.3  733s
 44949   928 infeasible   70        29.00000   30.00000  3.45%  87.3  737s
*45269     0              60      30.0000000   30.00000  0.00%  87.4  737s

Cutting planes:
  Cover: 7
  Clique: 540
  Flow cover: 1
  Inf proof: 2
  Zero half: 2

Explored 45371 nodes (3978390 simplex iterations) in 737.51 seconds
Thread count was 4 (of 4 available processors)

Solution count 8: 30 29 28 ... 23

Optimal solution found (tolerance 1.00e-04)
Best objective 3.000000000000e+01, best bound 3.000000000000e+01, gap 0.0000%
[1] Generating Graphs:
[1] Generating: ./../results/frb30-15-3/frb30-15-3-Green.jpeg
[1] Generating: ./../results/frb30-15-3/frb30-15-3-Blue.jpeg
[1] Generating: ./../results/frb30-15-3/frb30-15-3-Orange.jpeg
[1] Generating: ./../results/frb30-15-3/frb30-15-3-Purple.jpeg
[1] Generating: ./../results/frb30-15-3/frb30-15-3-Pink.jpeg
[1] Generating: ./../results/frb30-15-3/frb30-15-3-Red.jpeg
[1] Done.
